100
128
7
5
25
14
11
13
22
54
2
61
34
23
42
47
38
48
51
48
59
62
20
36
56
64
37
59
4
11
52
42
22
15
13
60
13
33
1
60
23
13
35
59
26
14
17
39
38
39
36
17
34
2
19
13
61
14
3
24
17
47
35
39
3
35
25
29
43
18
34
50
20
14
14
23
24
45
13
60
47
13
1
2
24
29
17
45
29
54
34
41
28
2
53
2
2
24
4
41
6
63